NAME : prob10e
TYPE : PDTSP
DIMENSION : 21
EDGE_WEIGHT_TYPE : EUC_2D
NODE_COORD_SECTION
1 796 879
2 526 481
3 945 459
4 585 646
5 957 640
6 550 498
7 300 733
8 544 960
9 984 241
10 658 625
11 119 118
12 217 159
13 772 209
14 470 101
15 650 449
16 363 633
17 972 519
18 375 370
19 121 937
20 74 530
21 118 502
PICKUP_AND_DELIVERY_SECTION
1 0 0 0 0 0 0
2 0 0 0 0 12 0
3 0 0 0 0 13 0
4 0 0 0 0 14 0
5 0 0 0 0 15 0
6 0 0 0 0 16 0
7 0 0 0 0 17 0
8 0 0 0 0 18 0
9 0 0 0 0 19 0
10 0 0 0 0 20 0
11 0 0 0 0 21 0
12 0 0 0 0 0 2
13 0 0 0 0 0 3
14 0 0 0 0 0 4
15 0 0 0 0 0 5
16 0 0 0 0 0 6
17 0 0 0 0 0 7
18 0 0 0 0 0 8
19 0 0 0 0 0 9
20 0 0 0 0 0 10
21 0 0 0 0 0 11
DEPOT_SECTION
1 
-1
EOF
